DIMENSION :19
NODE_COORD_SECTION
1 -20.87428304966184 66.01058030057953
2 -21.799237726896067 -57.85752119529912
3 -53.636829991750304 33.25346561330562
4 65.84026529797993 -8.136371633138921
5 2.0281538942134745 70.33883623296217
6 27.446986411974066 48.81473739382503
7 -14.265234791139477 -40.5128453735351
8 15.71082433513098 -9.546555896334041
9 -77.34165761218243 -78.04716636901092
10 36.50582039304189 -57.910437492159495
11 -64.49271966368755 -89.52942249201898
12 -94.06840406989068 79.81317118640249
13 35.39903612589296 -18.733401617992442
14 47.69998871959811 -46.64070822143198
15 -56.3272684618009 -87.83087855124938
16 -54.893639866442335 77.18179161438869
17 91.39742095394655 -20.358359386589427
18 -77.82332295189431 -25.07665663398602
19 -80.68838492434037 -14.898502824249405
EOF
